NAME : OMNETRUN
COMMENT : 524.61
TYPE : CVRP
DIMENSION : 21
EDGE_WEIGHT_TYPE : EUC_2D
CAPACITY : 21
NODE_COORD_SECTION
1 0.107093 -0.77924
2 41.8155 -804.117
3 108.412 -1176
4 81.9207 -1557.88
5 243.159 -1906.83
6 117.516 -3743.01
7 14.8827 -4087.39
8 152.602 -4937.22
9 472.367 -1069.04
10 442.914 -1460.85
11 453.279 -2494.82
12 494.154 -4515.37
13 252.122 -5610.4
14 251.867 -5974.63
15 551.804 -3300.96
16 679.287 -4896.28
17 637.153 -5957.43
18 973.259 -545.026
19 823.319 -1038.42
20 768.424 -1592.19
21 849.772 -3032.22
DEMAND_SECTION
1 0
2 1
3 1
4 1
5 1
6 1
7 1
8 1
9 1
10 1
11 1
12 1
13 1
14 1
15 1
16 1
17 1
18 1
19 1
20 1
21 1
DEPOT_SECTION
1
-1
EOF
